\ Model RRP_copy
\ LP format - for model browsing. Use MPS format to capture full model detail.
Maximize
 
Subject To
 R412: t_ki[1,12] - t_ki[1,32] <= -50.65911062196998
 R1228: 39 x_kij[1,1,12] + t_ki[1,1] - t_ki[1,12] <= 4.487866764511509
 R1720: 39 x_kij[1,32,46] + t_ki[1,32] - t_ki[1,46] <= 25.17899523062784
 R8197: - t_ki[1,1] + t_ki[1,46] <= 19.5
Bounds
 t_ki[1,1] free
 t_ki[1,12] free
 t_ki[1,32] free
 t_ki[1,46] free
Binaries
 x_kij[1,1,12] x_kij[1,32,46]
End
